proyfinal/src/viki/013/experimentInOfficeAgust.take6.output/2e3132fb-2998-4f55-b513-8ee08d2d0221.als.out
Reading from standard input... Use '--help' for help.
============================[ Problem Statistics ]=============================
|                                                                             |
|  Number of variables:         87638                                         |
|  Number of clauses:          161767                                         |
|  Parse time:                   0.04 s                                       |
|                                                                             |
============================[ Search Statistics ]==============================
| Conflicts |          ORIGINAL         |          LEARNT          | Progress |
|           |    Vars  Clauses Literals |    Limit  Clauses Lit/Cl |          |
===============================================================================
|       100 |   62052   103956   259791 |    38117      100     13 | 29.195 % |
|       250 |   62052   103956   259791 |    41928      250     20 | 29.195 % |
|       475 |   62052   103956   259791 |    46121      475     32 | 29.195 % |
|       812 |   62051   103912   259701 |    50733      810     44 | 29.196 % |
|      1318 |   62051   103912   259701 |    55807     1316     47 | 29.196 % |
|      2077 |   62051   103912   259701 |    61388     2075     52 | 29.196 % |
|      3216 |   62051   103912   259701 |    67526     3214     60 | 29.196 % |
|      4924 |   62051   103912   259701 |    74279     4922     77 | 29.196 % |
|      7486 |   62051   103912   259701 |    81707     7484     84 | 29.196 % |
===============================================================================
restarts              : 37
conflicts             : 8759           (6437 /sec)
decisions             : 28584          (0.00 % random) (21005 /sec)
propagations          : 13492255       (9914769 /sec)
conflict literals     : 719814         (51.96 % deleted)
Memory used           : 25.03 MB
CPU time              : 1.36082 s

UNSATISFIABLE
